(declare-const BAV1 Bool)
(declare-const BAV2 Bool)
(declare-const GEN5 Int)
(declare-const GEN4 Int)
(declare-const GEN3 (_ BitVec 8))
(declare-const GEN2 Int)
(declare-const GEN1 Int)
(set-info :source "Handcrafted by C.M. Wintersteiger")
(declare-fun X () (_ FloatingPoint 5 11))
(assert (= X ((_ to_fp_unsigned 5 11) RTZ GEN3)))
(assert (not (= X (_ +zero 5 11))))
(assert (= BAV1 (= X ((_ to_fp_unsigned 5 11) RTZ GEN3))))
(assert (= BAV2 (= X (_ +zero 5 11))))
(check-sat)
(get-model)
(check-sat-using smt)
(exit)